131 133 30 55 37 132 7 157 187 49 
103 124 115 47 163 194 52 87 109 
21 6 33 168 140 117 183 
26 104 190 153 200 136 53 
170 80 31 152 196 100 61 64 137 74 
101 143 146 58 125 139 99 
48 23 82 35 199 77 123 
164 147 11 156 29 97 72 165 56 
12 197 173 127 98 67 105 42 
62 50 75 134 25 195 110 107 
182 83 141 51 167 179 
44 114 186 88 191 4 121 17 189 
180 176 177 184 145 89 162 158 
66 116 171 9 91 1 15 63 
120 27 5 46 76 169 96 108 
60 155 135 112 79 34 142 
10 166 154 174 2 90 39 149 
3 32 94 68 14 28 198 
113 20 85 159 181 151 138 81 188 
19 193 57 128 126 92 130 59 111 
45 78 119 161 54 185 16 95 
118 129 178 192 24 122 
73 160 65 40 43 71 
93 18 8 150 69 172 
41 86 102 13 36 106 
38 175 144 84 70 
148 22 

